40
2 0 6
2 1 13
3 0 8
3 1 10
3 2 6
5 0 6
5 1 3
5 2 9
5 3 9
5 4 10
6 0 4
6 1 12
7 2 3
7 5 12
8 0 8
8 2 10
8 3 6
8 6 1
9 0 4
9 5 2
9 6 6
9 7 8
9 8 3
10 0 4
10 2 4
10 3 3
10 8 5
10 9 2
11 0 1
11 1 4
11 4 1
11 5 8
11 7 10
11 9 4
12 0 3
12 1 11
12 2 8
12 3 6
12 4 4
12 5 1
12 6 9
12 7 2
12 8 13
12 9 5
13 1 7
13 5 7
13 6 1
13 7 8
13 8 11
13 9 4
14 0 13
14 1 6
14 3 6
14 7 8
14 9 3
14 10 12
14 11 8
15 0 1
15 3 5
15 5 8
15 6 6
15 8 3
15 11 12
15 13 3
15 14 6
16 3 12
16 12 6
16 13 1
16 14 5
16 15 3
17 3 4
17 4 3
17 7 6
17 8 9
17 11 9
17 14 13
17 15 6
18 0 11
18 5 3
18 7 2
18 8 2
18 9 13
18 10 13
18 11 5
18 13 9
18 17 1
19 0 7
19 1 13
19 5 13
19 6 13
19 8 10
19 13 3
19 15 8
19 18 2
20 0 11
20 4 4
20 8 11
20 9 7
20 10 8
20 11 5
20 12 4
20 14 2
20 16 11
21 2 12
21 3 2
21 4 7
21 5 9
21 7 1
21 8 8
21 12 7
21 14 9
21 16 2
21 18 2
21 20 1
22 1 3
22 3 11
22 8 13
22 10 2
22 11 10
22 13 3
22 14 5
22 18 8
22 20 3
23 0 1
23 1 5
23 2 1
23 5 2
23 7 12
23 9 10
23 13 1
23 14 11
23 15 1
23 16 6
23 18 9
23 21 11
24 0 5
24 3 10
24 6 2
24 7 11
24 9 12
24 10 7
24 11 1
24 12 10
24 13 5
24 14 3
24 15 4
24 16 5
24 18 8
24 21 11
24 22 2
25 0 5
25 4 1
25 6 9
25 7 8
25 8 3
25 9 10
25 12 5
25 14 11
25 18 10
25 19 5
25 20 7
25 21 3
26 1 13
26 2 13
26 3 4
26 7 11
26 9 1
26 12 8
26 15 5
26 17 1
26 18 10
26 23 3
26 24 6
26 25 13
27 0 13
27 2 7
27 5 5
27 6 5
27 8 6
27 9 7
27 10 5
27 11 9
27 13 13
27 14 1
27 15 13
27 16 2
27 17 4
27 18 10
27 19 6
27 23 2
27 24 10
27 26 1
28 1 10
28 2 7
28 5 11
28 6 12
28 8 9
28 10 13
28 14 13
28 15 3
28 16 1
28 17 10
28 18 6
28 19 7
28 20 12
28 24 5
29 0 12
29 3 3
29 5 11
29 6 11
29 11 6
29 16 10
29 18 1
29 20 7
29 23 11
29 25 5
29 28 9
30 1 12
30 3 13
30 4 4
30 6 6
30 8 6
30 9 7
30 11 8
30 12 5
30 13 5
30 14 5
30 15 13
30 18 1
30 19 2
30 20 1
30 22 11
30 25 2
30 27 1
30 28 11
31 0 7
31 3 5
31 4 5
31 5 12
31 7 12
31 9 12
31 12 9
31 16 10
31 19 6
31 20 13
31 21 9
31 22 5
31 23 2
31 24 2
31 25 6
31 26 2
31 30 8
32 4 13
32 5 7
32 6 11
32 7 6
32 8 13
32 14 10
32 20 11
32 22 5
32 23 6
32 24 5
32 25 9
32 26 9
32 30 13
32 31 9
33 0 6
33 1 12
33 4 6
33 5 5
33 6 12
33 8 12
33 10 4
33 11 13
33 13 5
33 16 13
33 19 6
33 23 12
33 24 5
33 25 8
33 26 6
33 29 7
33 30 11
34 2 1
34 4 2
34 9 4
34 10 8
34 12 6
34 13 12
34 14 7
34 17 6
34 20 3
34 21 11
34 22 7
34 24 5
34 25 11
34 26 5
34 28 9
34 29 10
34 30 5
34 31 7
34 32 4
34 33 2
35 2 10
35 3 13
35 4 9
35 8 3
35 9 9
35 10 12
35 13 1
35 15 4
35 17 1
35 18 10
35 21 6
35 23 4
35 24 8
35 25 6
35 27 7
35 28 10
35 29 12
35 30 1
35 32 1
35 33 8
36 0 2
36 2 10
36 4 8
36 10 4
36 13 13
36 14 6
36 19 12
36 22 4
36 23 12
36 25 12
36 26 8
36 27 4
36 28 7
36 31 9
36 32 6
36 33 1
36 35 5
37 3 6
37 4 6
37 7 7
37 8 11
37 12 8
37 13 7
37 14 9
37 15 13
37 16 5
37 17 12
37 20 8
37 21 2
37 23 9
37 25 4
37 26 6
37 28 5
37 29 1
37 30 2
37 32 7
37 33 9
38 0 9
38 2 3
38 7 4
38 8 5
38 11 5
38 12 7
38 14 6
38 16 6
38 21 4
38 23 2
38 27 7
38 29 5
38 31 13
38 33 8
38 34 8
38 35 3
38 37 3
39 3 13
39 4 3
39 5 11
39 7 8
39 8 6
39 11 7
39 12 13
39 15 1
39 17 1
39 18 1
39 19 6
39 21 3
39 22 13
39 23 2
39 27 11
39 29 11
39 31 5
39 32 8
39 35 8
39 36 4
